 C                                      
   1.0000000000000000     
     5.0588780170362497   -0.0002808294460736    0.0092163037084961
     2.5470165219836658    4.3501535490453005    0.0868446978355579
     2.5607403960753357    1.4784441570022593    4.1816715560758553
  C/253f7b50bb8d
              16
Direct
 -1.1179179892718689 -0.4205058838950193  0.6023663384363056
 -0.9983070952597666 -0.2900773563153123  0.7264942736866167
 -1.1314632616980069 -0.4101851725202417  1.1047405160211028
 -1.0103522768969369 -0.3018527945166889  1.2304914924676982
 -1.1209261210639676  0.0939950014768716  0.5850342383366273
 -1.0016440085788794  0.1972589868396463  0.7350500034142228
 -1.1063462541862590  0.0692873425694087  1.1033881009754933
 -0.9817270526959425  0.2178005896828462  1.2050624528380662
 -0.6305763051359363 -0.4022306796401159  0.5963691181280847
 -0.4973635656037044 -0.2802475160039855  0.7231733754298519
 -0.6274781638617548 -0.4185776339330938  1.1017669285537750
 -0.5029766458037469 -0.2925173253141445  1.2283792212464486
 -0.6192342245297000  0.0926047728386763  0.5898713965803648
 -0.4962482168141067  0.2235104920700512  0.7150249340900138
 -0.6155466966053081  0.0836792828420363  1.1018945053935807
 -0.4949639363223270  0.2054241611855835  1.2129617491540503
Lattice velocities and vectors
           1
 -0.33586785E-02  0.51593664E-02  0.90370895E-03
  0.22257524E-02 -0.57533578E-02  0.10379681E-01
 -0.30142282E-02 -0.92828796E-02 -0.12041521E-02
  0.50538416E+01  0.12913604E-01  0.78651747E-02
  0.25457205E+01  0.43444333E+01  0.91759572E-01
  0.25568552E+01  0.14762010E+01  0.41753270E+01

  0.12085331E-02  0.23970462E-02 -0.15152618E-02
  0.90222228E-02 -0.39176021E-02 -0.15587990E-02
  0.72152052E-02 -0.10946156E-01 -0.19193645E-02
  0.62608836E-03  0.15264580E-02 -0.34607199E-03
 -0.91427277E-02  0.30013295E-03 -0.50880021E-02
  0.82494919E-02  0.57860465E-02  0.19551888E-02
 -0.10436064E-01 -0.61802862E-02  0.40334135E-03
  0.17186838E-02  0.15089978E-02  0.67252532E-02
  0.12513124E-01 -0.41886627E-02  0.26229598E-02
 -0.37011816E-02 -0.69398001E-02  0.49794548E-02
  0.35613165E-02 -0.97814002E-02 -0.19616532E-02
 -0.33369862E-02  0.28538973E-03 -0.12711501E-02
  0.73450817E-02  0.19719639E-02 -0.21984998E-02
  0.26578232E-02 -0.34499246E-02  0.34117702E-03
 -0.43440744E-02  0.92535261E-02  0.17663243E-03
  0.34355776E-03 -0.16135471E-02 -0.21472123E-02

           1
   1.5000000000000000     
  0.10000000E+01  0.00000000E+00  0.00000000E+00  0.00000000E+00
  0.88221383E+00  0.58051402E+00  0.60179931E+00
  0.52384178E-02  0.70874322E+00  0.72595351E+00
  0.87279553E+00  0.58623307E+00  0.10412167E+00
  0.98961384E+00  0.69872085E+00  0.23035462E+00
  0.87692082E+00  0.94730239E-01  0.58319425E+00
  0.99957865E+00  0.19902842E+00  0.73571122E+00
  0.89156205E+00  0.67092733E-01  0.10358517E+00
  0.17708389E-01  0.21749971E+00  0.20748620E+00
  0.37354629E+00  0.59597994E+00  0.59734298E+00
  0.50212267E+00  0.71672714E+00  0.72502972E+00
  0.37549896E+00  0.57825401E+00  0.10112622E+00
  0.49613617E+00  0.70774038E+00  0.22791856E+00
  0.38287876E+00  0.93556181E-01  0.58905669E+00
  0.50509331E+00  0.22226526E+00  0.71517234E+00
  0.38155075E+00  0.86883377E-01  0.10189301E+00
  0.50567606E+00  0.20512544E+00  0.21219572E+00
  0.00000000E+00  0.00000000E+00  0.00000000E+00
  0.00000000E+00  0.00000000E+00  0.00000000E+00
  0.00000000E+00  0.00000000E+00  0.00000000E+00
  0.00000000E+00  0.00000000E+00  0.00000000E+00
  0.00000000E+00  0.00000000E+00  0.00000000E+00
  0.00000000E+00  0.00000000E+00  0.00000000E+00
  0.00000000E+00  0.00000000E+00  0.00000000E+00
  0.00000000E+00  0.00000000E+00  0.00000000E+00
  0.00000000E+00  0.00000000E+00  0.00000000E+00
  0.00000000E+00  0.00000000E+00  0.00000000E+00
  0.00000000E+00  0.00000000E+00  0.00000000E+00
  0.00000000E+00  0.00000000E+00  0.00000000E+00
  0.00000000E+00  0.00000000E+00  0.00000000E+00
  0.00000000E+00  0.00000000E+00  0.00000000E+00
  0.00000000E+00  0.00000000E+00  0.00000000E+00
  0.00000000E+00  0.00000000E+00  0.00000000E+00
  0.00000000E+00  0.00000000E+00  0.00000000E+00
  0.00000000E+00  0.00000000E+00  0.00000000E+00
  0.00000000E+00  0.00000000E+00  0.00000000E+00
  0.00000000E+00  0.00000000E+00  0.00000000E+00
  0.00000000E+00  0.00000000E+00  0.00000000E+00
  0.00000000E+00  0.00000000E+00  0.00000000E+00
  0.00000000E+00  0.00000000E+00  0.00000000E+00
  0.00000000E+00  0.00000000E+00  0.00000000E+00
  0.00000000E+00  0.00000000E+00  0.00000000E+00
  0.00000000E+00  0.00000000E+00  0.00000000E+00
  0.00000000E+00  0.00000000E+00  0.00000000E+00
  0.00000000E+00  0.00000000E+00  0.00000000E+00
  0.00000000E+00  0.00000000E+00  0.00000000E+00
  0.00000000E+00  0.00000000E+00  0.00000000E+00
  0.00000000E+00  0.00000000E+00  0.00000000E+00
  0.00000000E+00  0.00000000E+00  0.00000000E+00
