 C 
 1.0000000000000000
     5.0525222081685452    0.0000000000000000    0.0000000000000000
     2.5262611040842731    4.3756125854590069    0.0000000000000000
     2.5262611040842731    1.4585375284863362    4.1253671080310212
 C  
  16
Cartesian
  0.0000000000000000  0.0000000000000000  0.0000000000000000
  1.2631305520421365  0.7292687642431679  0.5156708885038777
  1.2631305520421365  0.7292687642431681  2.0626835540155106
  2.5262611040842731  1.4585375284863360  2.5783544425193883
  1.2631305520421365  2.1878062927295034  0.0000000000000000
  2.5262611040842731  2.9170750569726716  0.5156708885038777
  2.5262611040842731  2.9170750569726716  2.0626835540155106
  3.7893916561264094  3.6463438212158392  2.5783544425193883
  2.5262611040842726  0.0000000000000000  0.0000000000000000
  3.7893916561264094  0.7292687642431679  0.5156708885038777
  3.7893916561264094  0.7292687642431681  2.0626835540155106
  5.0525222081685461  1.4585375284863360  2.5783544425193883
  3.7893916561264094  2.1878062927295034  0.0000000000000000
  5.0525222081685461  2.9170750569726716  0.5156708885038777
  5.0525222081685461  2.9170750569726716  2.0626835540155106
  6.3156527602106829  3.6463438212158392  2.5783544425193883
