 C  H                                   
   1.0000000000000000     
     2.5263000000000000    0.0000000000000000    0.0000000000000000
     0.0000000000000000    2.5263000000000000    0.0000000000000000
     0.0000000000000000    0.0000000000000000   14.5726999999999993
  C   H
               5               2
Selective dynamics
Direct
  0.0000000000000000  0.0000000000000000  0.1912000000000020   F   F   F
  0.5000000000000000  0.5000000000000000  0.0686200000000028   F   F   F
  0.5000000000000000  0.5000000000000000  0.3137899999999973   F   F   F
  0.5000000000000000  0.0000000000000000  0.1299100000000024   F   F   F
  0.0000000000000000  0.5000000000000000  0.2524999999999977   F   F   F
  0.7842986810509629  0.5000000000000000  0.0161238163050982   T   T   T
  0.2157013189490369  0.5000000000000000  0.0161238163050982   T   T   T

  0.00000000E+00  0.00000000E+00  0.00000000E+00
  0.00000000E+00  0.00000000E+00  0.00000000E+00
  0.00000000E+00  0.00000000E+00  0.00000000E+00
  0.00000000E+00  0.00000000E+00  0.00000000E+00
  0.00000000E+00  0.00000000E+00  0.00000000E+00
  0.00000000E+00  0.00000000E+00  0.00000000E+00
  0.00000000E+00  0.00000000E+00  0.00000000E+00
