 C                                      
   1.0000000000000000     
     5.0526000000000000    0.0000000000000000    0.0000000000000000
     0.0000000000000000    5.0526000000000000    0.0000000000000000
     0.0000000000000000    0.0000000000000000   14.5726999999999993
  C/253f7b50bb8d  H/030f79b5d3ab
              20               8
Selective dynamics
Direct
  0.0000015944621410  0.0000013278009092  0.1966553201617671   T   T   T
  0.2500000000000000  0.2500000000000000  0.0686200000000028   F   F   F
  0.2500074826317160  0.3633194133260744  0.2985524902250916   T   T   T
  0.2500009635324005  0.0000003507095983  0.1305773373375914   T   T   T
  0.0000022881230848  0.2682109442430942  0.2518112391605385   T   T   T
  0.0000020882823435  0.5000009303696018  0.1795784102088760   T   T   T
  0.2500000000000000  0.7500000000000000  0.0686200000000028   F   F   F
  0.2500065034060839  0.6366834828987322  0.2985521412988703   T   T   T
  0.2500015881647073  0.5000002484708972  0.1214010896563309   T   T   T
  0.0000030774375332  0.7317913489474321  0.2518109495810634   T   T   T
  0.5000021727252886  0.0000011425084026  0.1966555838423503   T   T   T
  0.7500000000000000  0.2500000000000000  0.0686200000000028   F   F   F
  0.7499989168079608  0.3633170785218240  0.2985522106816845   T   T   T
  0.7500006865865103  0.0000003692436081  0.1305773369705463   T   T   T
  0.5000019605080368  0.2682115275761419  0.2518111252385182   T   T   T
  0.5000017132179337  0.5000005891730979  0.1795787390283792   T   T   T
  0.7500000000000000  0.7500000000000000  0.0686200000000028   F   F   F
  0.7500059855647905  0.6366864359953084  0.2985520722656076   T   T   T
  0.7500018681080931  0.5000003798821453  0.1214009509201333   T   T   T
  0.5000026074793240  0.7317917949710306  0.2518110820111090   T   T   T
  0.3921493400000031  0.2500000000000000  0.0161238159999968   F   F   F
  0.1078506599999969  0.2500000000000000  0.0161238159999968   F   F   F
  0.3921493400000031  0.7500000000000000  0.0161238159999968   F   F   F
  0.1078506599999969  0.7500000000000000  0.0161238159999968   F   F   F
  0.8921493400000031  0.2500000000000000  0.0161238159999968   F   F   F
  0.6078506599999969  0.2500000000000000  0.0161238159999968   F   F   F
  0.8921493400000031  0.7500000000000000  0.0161238159999968   F   F   F
  0.6078506599999969  0.7500000000000000  0.0161238159999968   F   F   F

  0.00000000E+00  0.00000000E+00  0.00000000E+00
  0.00000000E+00  0.00000000E+00  0.00000000E+00
  0.00000000E+00  0.00000000E+00  0.00000000E+00
  0.00000000E+00  0.00000000E+00  0.00000000E+00
  0.00000000E+00  0.00000000E+00  0.00000000E+00
  0.00000000E+00  0.00000000E+00  0.00000000E+00
  0.00000000E+00  0.00000000E+00  0.00000000E+00
  0.00000000E+00  0.00000000E+00  0.00000000E+00
  0.00000000E+00  0.00000000E+00  0.00000000E+00
  0.00000000E+00  0.00000000E+00  0.00000000E+00
  0.00000000E+00  0.00000000E+00  0.00000000E+00
  0.00000000E+00  0.00000000E+00  0.00000000E+00
  0.00000000E+00  0.00000000E+00  0.00000000E+00
  0.00000000E+00  0.00000000E+00  0.00000000E+00
  0.00000000E+00  0.00000000E+00  0.00000000E+00
  0.00000000E+00  0.00000000E+00  0.00000000E+00
  0.00000000E+00  0.00000000E+00  0.00000000E+00
  0.00000000E+00  0.00000000E+00  0.00000000E+00
  0.00000000E+00  0.00000000E+00  0.00000000E+00
  0.00000000E+00  0.00000000E+00  0.00000000E+00
  0.00000000E+00  0.00000000E+00  0.00000000E+00
  0.00000000E+00  0.00000000E+00  0.00000000E+00
  0.00000000E+00  0.00000000E+00  0.00000000E+00
  0.00000000E+00  0.00000000E+00  0.00000000E+00
  0.00000000E+00  0.00000000E+00  0.00000000E+00
  0.00000000E+00  0.00000000E+00  0.00000000E+00
  0.00000000E+00  0.00000000E+00  0.00000000E+00
  0.00000000E+00  0.00000000E+00  0.00000000E+00
