 C                                      
   1.0000000000000000     
     5.0526000000000000    0.0000000000000000    0.0000000000000000
     0.0000000000000000    5.0526000000000000    0.0000000000000000
     0.0000000000000000    0.0000000000000000   14.5726999999999993
  C 
              20
Selective dynamics
Direct
 -0.0000000000000252  0.0000000000000038  0.1911636386180572   T   T   T
  0.2500000000000000  0.2500000000000000  0.0686200000000028   F   F   F
  0.2499999999999533  0.3553427794440613  0.2885309993148890   T   T   T
  0.2500000000000093  0.0000000000000391  0.1318164525753164   T   T   T
  0.0000000000000009  0.2782750816162812  0.2407883883620689   T   T   T
  0.0000000000000696  0.4999999999999472  0.1837006259900338   T   T   T
  0.2500000000000000  0.7500000000000000  0.0686200000000028   F   F   F
  0.2500000000000356  0.6446572205557556  0.2885309993149253   T   T   T
  0.2500000000000013  0.4999999999999628  0.1299013929115641   T   T   T
  0.0000000000000110  0.7217249183836184  0.2407883883621106   T   T   T
  0.5000000000000347 -0.0000000000000101  0.1911636386180506   T   T   T
  0.7500000000000000  0.2500000000000000  0.0686200000000028   F   F   F
  0.7500000000000436  0.3553427794440804  0.2885309993149074   T   T   T
  0.7500000000000228  0.0000000000000650  0.1318164525753281   T   T   T
  0.5000000000000207  0.2782750816162311  0.2407883883620908   T   T   T
  0.4999999999999591  0.4999999999999331  0.1837006259900241   T   T   T
  0.7500000000000000  0.7500000000000000  0.0686200000000028   F   F   F
  0.7500000000000129  0.6446572205556881  0.2885309993149244   T   T   T
  0.7500000000000099  0.4999999999999661  0.1299013929115863   T   T   T
  0.5000000000000288  0.7217249183836180  0.2407883883621073   T   T   T

  0.00000000E+00  0.00000000E+00  0.00000000E+00
  0.00000000E+00  0.00000000E+00  0.00000000E+00
  0.00000000E+00  0.00000000E+00  0.00000000E+00
  0.00000000E+00  0.00000000E+00  0.00000000E+00
  0.00000000E+00  0.00000000E+00  0.00000000E+00
  0.00000000E+00  0.00000000E+00  0.00000000E+00
  0.00000000E+00  0.00000000E+00  0.00000000E+00
  0.00000000E+00  0.00000000E+00  0.00000000E+00
  0.00000000E+00  0.00000000E+00  0.00000000E+00
  0.00000000E+00  0.00000000E+00  0.00000000E+00
  0.00000000E+00  0.00000000E+00  0.00000000E+00
  0.00000000E+00  0.00000000E+00  0.00000000E+00
  0.00000000E+00  0.00000000E+00  0.00000000E+00
  0.00000000E+00  0.00000000E+00  0.00000000E+00
  0.00000000E+00  0.00000000E+00  0.00000000E+00
  0.00000000E+00  0.00000000E+00  0.00000000E+00
  0.00000000E+00  0.00000000E+00  0.00000000E+00
  0.00000000E+00  0.00000000E+00  0.00000000E+00
  0.00000000E+00  0.00000000E+00  0.00000000E+00
  0.00000000E+00  0.00000000E+00  0.00000000E+00
