SYSTEM = carbon 100

ISMEAR = -5      # Wavefunction occupancies
ENCUT  = 800  ! what encut use?
LREAL=auto
ALGO=F

#%%% dipole corrections for surfaces
IDIPOL = 3
LDIPOL = T

#ISTART = 1
#LCHARG = .FALSE. # Do not write charge density to save time
#LORBIT = 11

#%%%% To compute STM images
LPARD= T
EINT = 2.5 0. !value related to vBIAS in STM
NBMOD =-3

#%%%%%%%%%% PARALLELIZATION %%%%%%%%%%%%%%%%%%%%%%%
NCORE=1 ! cores per procesor
NSIM=4 ! 
