 C 
 1.0000000000000000
     5.0526000000000000    0.0000000000000000    0.0000000000000000
     0.0000000000000000    5.0526000000000000    0.0000000000000000
     0.0000000000000000    0.0000000000000000   14.5726999999999993
 C  H
  20 8
Selective dynamics
Cartesian
 -0.0000000000001273  0.0000000000000192  2.7857703564893623   T   T   T
  1.2631500000000000  1.2631500000000000  0.9999786740000408   F   F   F
  1.2631499999997640  1.7954049274190640  4.2046756937160827   T   T   T
  1.2631500000000471  0.0000000000001976  1.9209216184443132   T   T   T
  0.0000000000000045  1.4060126773744221  3.5089369470839213   T   T   T
  0.0000000000003517  2.5262999999997331  2.6770141123649656   T   T   T
  1.2631500000000000  3.7894500000000000  0.9999786740000408   F   F   F
  1.2631500000001799  3.2571950725800107  4.2046756937166121   T   T   T
  1.2631500000000064  2.5262999999998121  1.8930140284823502   T   T   T
  0.0000000000000556  3.6465873226250705  3.5089369470845293   T   T   T
  2.5263000000001754 -0.0000000000000510  2.7857703564892660   T   T   T
  3.7894500000000000  1.2631500000000000  0.9999786740000408   F   F   F
  3.7894500000002203  1.7954049274191606  4.2046756937163510   T   T   T
  3.7894500000001150  0.0000000000003284  1.9209216184444835   T   T   T
  2.5263000000001044  1.4060126773741692  3.5089369470842402   T   T   T
  2.5262999999997935  2.5262999999996620  2.6770141123648239   T   T   T
  3.7894500000000000  3.7894500000000000  0.9999786740000408   F   F   F
  3.7894500000000653  3.2571950725796697  4.2046756937165979   T   T   T
  3.7894500000000497  2.5262999999998286  1.8930140284826737   T   T   T
  2.5263000000001452  3.6465873226250682  3.5089369470844809   T   T   T
  1.9813737579390476  1.2631500000000000  0.2349675378693045   F   F   F
  0.5449262420609520  1.2631500000000000  0.2349675378693045   F   F   F
  1.9813737579390476  3.7894500000000000  0.2349675378693045   F   F   F
  0.5449262420609520  3.7894500000000000  0.2349675378693045   F   F   F
  4.5076737579390471  1.2631500000000000  0.2349675378693045   F   F   F
  3.0712262420609520  1.2631500000000000  0.2349675378693045   F   F   F
  4.5076737579390471  3.7894500000000000  0.2349675378693045   F   F   F
  3.0712262420609520  3.7894500000000000  0.2349675378693045   F   F   F

