 C  H 
 1.0000000000000000
     2.5263000000000000    0.0000000000000000    0.0000000000000000
     0.0000000000000000    2.5263000000000000    0.0000000000000000
     0.0000000000000000    0.0000000000000000   14.5726999999999993
 C   H  
   5   2
Selective dynamics
Cartesian
  0.0000000000000000  0.0000000000000000  2.7863002400000001   F   F   F
  1.2631500000000000  1.2631500000000000  0.9999786740000000   F   F   F
  1.2631500000000000  1.2631500000000000  4.5727675330000004   F   F   F
  1.2631500000000000  0.0000000000000000  1.8931394570000000   F   F   F
  0.0000000000000000  1.2631500000000000  3.6796067500000000   F   F   F
  2.1939399719999999  1.2631500000000000  0.3418755420000000   T   T   T
  0.3323600280000000  1.2631500000000000  0.3418755420000000   T   T   T
