 C  H  C  H  C  H  C  H 
 1.0000000000000000
     5.0526000000000000    0.0000000000000000    0.0000000000000000
     0.0000000000000000    5.0526000000000000    0.0000000000000000
     0.0000000000000000    0.0000000000000000   14.5726999999999993
 C   H
   20 8
Selective dynamics
Cartesian
  0.0000000000000000  0.0000000000000000  2.7863002400000290   T   T   T
  1.2631500000000000  1.2631500000000000  0.9999786740000408   F   F   F
  1.2631500000000000  1.2631500000000000  4.5727675329999604   T   T   T
  1.2631500000000000  0.0000000000000000  1.8931394570000351   T   T   T
  0.0000000000000000  1.2631500000000000  3.6796067499999667   T   T   T
  0.0000000000000000  2.5263000000000000  2.7863002400000290   T   T   T
  1.2631500000000000  3.7894500000000000  0.9999786740000408   F   F   F
  1.2631500000000000  3.7894500000000000  4.5727675329999604   T   T   T
  1.2631500000000000  2.5263000000000000  1.8931394570000351   T   T   T
  0.0000000000000000  3.7894500000000000  3.6796067499999667   T   T   T
  2.5263000000000000  0.0000000000000000  2.7863002400000290   T   T   T
  3.7894500000000000  1.2631500000000000  0.9999786740000408   F   F   F
  3.7894500000000000  1.2631500000000000  4.5727675329999604   T   T   T
  3.7894500000000000  0.0000000000000000  1.8931394570000351   T   T   T
  2.5263000000000000  1.2631500000000000  3.6796067499999667   T   T   T
  2.5263000000000000  2.5263000000000000  2.7863002400000290   T   T   T
  3.7894500000000000  3.7894500000000000  0.9999786740000408   F   F   F
  3.7894500000000000  3.7894500000000000  4.5727675329999604   T   T   T
  3.7894500000000000  2.5263000000000000  1.8931394570000351   T   T   T
  2.5263000000000000  3.7894500000000000  3.6796067499999667   T   T   T  
  1.9813737579390476  1.2631500000000000  0.2349675378693045   F   F   F
  0.5449262420609520  1.2631500000000000  0.2349675378693045   F   F   F
  1.9813737579390476  3.7894500000000000  0.2349675378693045   F   F   F
  0.5449262420609520  3.7894500000000000  0.2349675378693045   F   F   F
  4.5076737579390471  1.2631500000000000  0.2349675378693045   F   F   F
  3.0712262420609520  1.2631500000000000  0.2349675378693045   F   F   F
  4.5076737579390471  3.7894500000000000  0.2349675378693045   F   F   F
  3.0712262420609520  3.7894500000000000  0.2349675378693045   F   F   F

