 C                                      
   1.0000000000000000     
     5.0526000000000000    0.0000000000000000    0.0000000000000000
     0.0000000000000000    5.0526000000000000    0.0000000000000000
     0.0000000000000000    0.0000000000000000   14.5726999999999993
  C   H
              20               8
Selective dynamics
Direct
  0.0000015944621395  0.0000013278009093  0.1966553201617645   T   T   T
  0.2500000000000000  0.2500000000000000  0.0686200000000028   F   F   F
  0.2500074826317170  0.3633194133260725  0.2985524902250944   T   T   T
  0.2500009635323988  1.0000003507095954  0.1305773373375927   T   T   T
  0.0000022881230835  0.2682109442430915  0.2518112391605359   T   T   T
  0.0000020882823415  0.5000009303696016  0.1795784102088734   T   T   T
  0.2500000000000000  0.7500000000000000  0.0686200000000028   F   F   F
  0.2500065034060849  0.6366834828987312  0.2985521412988703   T   T   T
  0.2500015881647068  0.5000002484708936  0.1214010896563300   T   T   T
  0.0000030774375326  0.7317913489474355  0.2518109495810649   T   T   T
  0.5000021727252911  1.0000011425084043  0.1966555838423496   T   T   T
  0.7500000000000000  0.2500000000000000  0.0686200000000028   F   F   F
  0.7499989168079603  0.3633170785218232  0.2985522106816826   T   T   T
  0.7500006865865132  0.0000003692436051  0.1305773369705491   T   T   T
  0.5000019605080389  0.2682115275761410  0.2518111252385214   T   T   T
  0.5000017132179304  0.5000005891730964  0.1795787390283763   T   T   T
  0.7500000000000000  0.7500000000000000  0.0686200000000028   F   F   F
  0.7500059855647934  0.6366864359953061  0.2985520722656083   T   T   T
  0.7500018681080941  0.5000003798821423  0.1214009509201347   T   T   T
  0.5000026074793250  0.7317917949710278  0.2518110820111105   T   T   T
  0.3921493400000031  0.2500000000000000  0.0161238159999968   F   F   F
  0.1078506599999969  0.2500000000000000  0.0161238159999968   F   F   F
  0.3921493400000031  0.7500000000000000  0.0161238159999968   F   F   F
  0.1078506599999969  0.7500000000000000  0.0161238159999968   F   F   F
  0.8921493400000031  0.2500000000000000  0.0161238159999968   F   F   F
  0.6078506599999969  0.2500000000000000  0.0161238159999968   F   F   F
  0.8921493400000031  0.7500000000000000  0.0161238159999968   F   F   F
  0.6078506599999969  0.7500000000000000  0.0161238159999968   F   F   F

  0.00000000E+00  0.00000000E+00  0.00000000E+00
  0.00000000E+00  0.00000000E+00  0.00000000E+00
  0.00000000E+00  0.00000000E+00  0.00000000E+00
  0.00000000E+00  0.00000000E+00  0.00000000E+00
  0.00000000E+00  0.00000000E+00  0.00000000E+00
  0.00000000E+00  0.00000000E+00  0.00000000E+00
  0.00000000E+00  0.00000000E+00  0.00000000E+00
  0.00000000E+00  0.00000000E+00  0.00000000E+00
  0.00000000E+00  0.00000000E+00  0.00000000E+00
  0.00000000E+00  0.00000000E+00  0.00000000E+00
  0.00000000E+00  0.00000000E+00  0.00000000E+00
  0.00000000E+00  0.00000000E+00  0.00000000E+00
  0.00000000E+00  0.00000000E+00  0.00000000E+00
  0.00000000E+00  0.00000000E+00  0.00000000E+00
  0.00000000E+00  0.00000000E+00  0.00000000E+00
  0.00000000E+00  0.00000000E+00  0.00000000E+00
  0.00000000E+00  0.00000000E+00  0.00000000E+00
  0.00000000E+00  0.00000000E+00  0.00000000E+00
  0.00000000E+00  0.00000000E+00  0.00000000E+00
  0.00000000E+00  0.00000000E+00  0.00000000E+00
  0.00000000E+00  0.00000000E+00  0.00000000E+00
  0.00000000E+00  0.00000000E+00  0.00000000E+00
  0.00000000E+00  0.00000000E+00  0.00000000E+00
  0.00000000E+00  0.00000000E+00  0.00000000E+00
  0.00000000E+00  0.00000000E+00  0.00000000E+00
  0.00000000E+00  0.00000000E+00  0.00000000E+00
  0.00000000E+00  0.00000000E+00  0.00000000E+00
  0.00000000E+00  0.00000000E+00  0.00000000E+00
