 C 
 1.0000000000000000
     5.0526000000000000    0.0000000000000000    0.0000000000000000
     0.0000000000000000    5.0526000000000000    0.0000000000000000
     0.0000000000000000    0.0000000000000000   14.5726999999999993
 C  
  20
Selective dynamics
Cartesian
  0.0000000000000000  0.0000000000000000  2.7863002400000290   T   T   T
  1.2631500000000000  1.2631500000000000  0.9999786740000408   F   F   F
  1.2631500000000000  1.6631500000000004  4.5727675329999604   T   T   T
  1.2631500000000000  0.0000000000000000  1.8931394570000351   T   T   T
  0.0000000000000000  1.2631500000000000  3.6796067499999667   T   T   T
  0.0000000000000000  2.5263000000000000  2.7863002400000290   T   T   T
  1.2631500000000000  3.7894500000000000  0.9999786740000408   F   F   F
  1.2631500000000000  3.3894499999999996  4.5727675329999604   T   T   T
  1.2631500000000000  2.5263000000000000  1.8931394570000351   T   T   T
  0.0000000000000000  3.7894500000000000  3.6796067499999667   T   T   T
  2.5263000000000000  0.0000000000000000  2.7863002400000290   T   T   T
  3.7894500000000000  1.2631500000000000  0.9999786740000408   F   F   F
  3.7894500000000000  1.6631500000000004  4.5727675329999604   T   T   T
  3.7894500000000000  0.0000000000000000  1.8931394570000351   T   T   T
  2.5263000000000000  1.2631500000000000  3.6796067499999667   T   T   T
  2.5263000000000000  2.5263000000000000  2.7863002400000290   T   T   T
  3.7894500000000000  3.7894500000000000  0.9999786740000408   F   F   F
  3.7894500000000000  3.3894499999999996  4.5727675329999604   T   T   T
  3.7894500000000000  2.5263000000000000  1.8931394570000351   T   T   T
  2.5263000000000000  3.7894500000000000  3.6796067499999667   T   T   T
