C : 100-1x1-l5v10.0
 1.0000000000000000
     2.5263000000000000    0.0000000000000000    0.0000000000000000
     0.0000000000000000    2.5263000000000000    0.0000000000000000
     0.0000000000000000    0.0000000000000000   13.5727418210000002
 C
   5
Cartesian
  0.0000000000000000  1.2631500000000000  2.6795224339999995
  1.2631500000000000  0.0000000000000000  0.8932193869999999
  0.0000000000000000  0.0000000000000000  1.7863030469999996
  1.2631500000000000  1.2631500000000000  0.0000000000000000
  1.2631500000000000  1.2631500000000000  3.5727418210000002
