SYSTEM = fcc c

! machine learning
ML_LMLFF  = T
ML_ISTART = 2

RANDOM_SEED =         688344966                0                0
