SYSTEM = C(100) 

ISMEAR = -5      # Wavefunction occupancies
ENCUT  = 800  ! what encut use?
LREAL=auto
ALGO=F

#%%% dipole corrections for surfaces
IDIPOL = 3
LDIPOL = T

#ISTART = 1
LCHARG = .FALSE. # Do not write charge density to save time

