C fcc         # System label
0              # Automatic generation
Gamma          # Generation scheme
7 7 1
0 0 0          # Shift
