C fcc         # System label
0              # Automatic generation
Gamma          # Generation scheme
4 4 4
0 0 0          # Shift
