C fcc         # System label
0              # Automatic generation
Gamma          # Generation scheme
3 3 1
0 0 0          # Shift
