C fcc         # System label
0              # Automatic generation
Gamma          # Generation scheme
2 2 1
0 0 0          # Shift
