 C 
 1.0000000000000000
     2.5263000000000000    0.0000000000000000    0.0000000000000000
     0.0000000000000000    2.5263000000000000    0.0000000000000000
     0.0000000000000000    0.0000000000000000   13.5726999999999993
 C  
   5
Cartesian
  0.0000000000000000  0.0000000000000000  1.7863030469999996
  1.2631500000000000  1.2631500000000000  0.0000000000000000
  1.2631500000000000  1.2631500000000000  3.5727418210000002
  1.2631500000000000  0.0000000000000000  0.8932193869999999
  0.0000000000000000  1.2631500000000000  2.6795224339999995
