 C 
 1.0000000000000000
     2.5145000000000000    0.0000000000000000    0.0000000000000000
     1.2572500000000002    2.1776208778159707    0.0000000000000000
     1.2572500000000002    0.7258736259386571    2.0530806527427670
   2
Cartesian
  0.0000000000000000  0.0000000000000000  0.0000000000000000
  1.2572500000000000  0.7258736259386569  0.5132701631856917
