 C                                      
   1.0300000000000000     
     2.5145000000000000    0.0000000000000000    0.0000000000000000
     1.2572500000000002    2.1776208778159707    0.0000000000000000
     1.2572500000000002    0.7258736259386571    2.0530806527427670
  C/253f7b50bb8d
               2
Direct
  0.0000000000000000  0.0000000000000000  0.0000000000000000
  0.2500000000000000  0.2500000000000000  0.2500000000000000

  0.00000000E+00  0.00000000E+00  0.00000000E+00
  0.00000000E+00  0.00000000E+00  0.00000000E+00
