 C                                      
   1.0000000000000000     
     5.0526000000000000    0.0000000000000000    0.0000000000000000
     0.0000000000000000    5.0526000000000000    0.0000000000000000
     0.0000000000000000    0.0000000000000000   14.5726999999999993
  C   H
              20               8
Selective dynamics
Direct
  0.0000018336623719  1.0000030774461832  0.1962720932659305   T   T   T
  0.2500000000000000  0.2500000000000000  0.0686200000000000   F   F   F
  0.2500134358779866  0.3631314263732923  0.2981640242062636   T   T   T
  0.2499921373721800  0.9999975470611274  0.1302873468162939   T   T   T
  0.0000060122211401  0.2677546039847722  0.2515665890405432   T   T   T
  0.0000057297572947  0.4999969353937007  0.1791477766334899   T   T   T
  0.2500000000000000  0.7500000000000000  0.0686200000000000   F   F   F
  0.2500095053020512  0.6368765624051972  0.2981624013537073   T   T   T
  0.2500079176214561  0.4999976321796442  0.1213016567837979   T   T   T
  0.0000010873638263  0.7322397594728034  0.2515648518378010   T   T   T
  0.5000065172517185 -0.0000137107992286  0.1962788909931290   T   T   T
  0.7500000000000000  0.2500000000000000  0.0686200000000000   F   F   F
  0.7499929212243759  0.3631456164438324  0.2981609974926004   T   T   T
  0.7499870619158980  0.0000043728459157  0.1302842374408598   T   T   T
  0.5000055801817730  0.2677638337919362  0.2515676004183735   T   T   T
  0.5000120928017155  0.5000103326054870  0.1791520384220441   T   T   T
  0.7500000000000000  0.7500000000000000  0.0686200000000000   F   F   F
  0.7499977157045945  0.6368763986220514  0.2981662786593102   T   T   T
  0.7499994328832910  0.5000006409681919  0.1213012517055847   T   T   T
  0.4999997249528024  0.7322507310375006  0.2515644876169409   T   T   T
  0.3921493400000000  0.2500000000000000  0.0161238160000000   F   F   F
  0.1078506600000000  0.2500000000000000  0.0161238160000000   F   F   F
  0.3921493400000000  0.7500000000000000  0.0161238160000000   F   F   F
  0.1078506600000000  0.7500000000000000  0.0161238160000000   F   F   F
  0.8921493400000000  0.2500000000000000  0.0161238160000000   F   F   F
  0.6078506600000000  0.2500000000000000  0.0161238160000000   F   F   F
  0.8921493400000000  0.7500000000000000  0.0161238160000000   F   F   F
  0.6078506600000000  0.7500000000000000  0.0161238160000000   F   F   F

  0.58532936E-06 -0.79187837E-05  0.11123707E-04
  0.00000000E+00  0.00000000E+00  0.00000000E+00
  0.20379619E-05 -0.78182550E-05 -0.19808401E-05
  0.92494069E-05  0.81971754E-05  0.99836309E-05
 -0.34308704E-05  0.92770092E-05 -0.97027178E-05
 -0.30909769E-05 -0.73089253E-06  0.38292456E-04
  0.00000000E+00  0.00000000E+00  0.00000000E+00
 -0.24373284E-05  0.21019786E-05  0.28895931E-05
  0.12808961E-04  0.27914489E-05  0.43622371E-04
  0.45395578E-05 -0.10662864E-04 -0.12960163E-04
 -0.26859137E-05  0.11596340E-05  0.28996343E-05
  0.00000000E+00  0.00000000E+00  0.00000000E+00
  0.83889293E-05 -0.47349412E-05  0.83875324E-05
  0.65529124E-05 -0.57053237E-05  0.13262815E-04
  0.39710618E-05  0.10890049E-04 -0.77472435E-05
 -0.69436576E-05  0.86116380E-05  0.21250495E-04
  0.00000000E+00  0.00000000E+00  0.00000000E+00
  0.55222930E-05  0.36535224E-05 -0.20162749E-07
  0.90569129E-05 -0.35587194E-05  0.36353004E-04
  0.36157076E-05 -0.22273377E-04 -0.47123235E-05
  0.00000000E+00  0.00000000E+00  0.00000000E+00
  0.00000000E+00  0.00000000E+00  0.00000000E+00
  0.00000000E+00  0.00000000E+00  0.00000000E+00
  0.00000000E+00  0.00000000E+00  0.00000000E+00
  0.00000000E+00  0.00000000E+00  0.00000000E+00
  0.00000000E+00  0.00000000E+00  0.00000000E+00
  0.00000000E+00  0.00000000E+00  0.00000000E+00
  0.00000000E+00  0.00000000E+00  0.00000000E+00

           1
   1.5000000000000000     
  0.13441376E+02  0.37434273E-01  0.37434617E-01  0.13403942E+02
  0.20074331E-05  0.72654259E-06  0.19627324E+00
  0.25000000E+00  0.25000000E+00  0.68620000E-01
  0.25001404E+00  0.36312911E+00  0.29816382E+00
  0.24999488E+00  0.99999998E+00  0.13028837E+00
  0.49936751E-05  0.26775736E+00  0.25156559E+00
  0.48121178E-05  0.49999672E+00  0.17915172E+00
  0.25000000E+00  0.75000000E+00  0.68620000E-01
  0.25000878E+00  0.63687719E+00  0.29816270E+00
  0.25001172E+00  0.49999846E+00  0.12130615E+00
  0.24350535E-05  0.73223659E+00  0.25156352E+00
  0.50000572E+00  0.99998663E+00  0.19627919E+00
  0.75000000E+00  0.25000000E+00  0.68620000E-01
  0.74999541E+00  0.36314421E+00  0.29816186E+00
  0.74998901E+00  0.26790674E-05  0.13028560E+00
  0.50000676E+00  0.26776707E+00  0.25156680E+00
  0.50001003E+00  0.50001289E+00  0.17915423E+00
  0.75000000E+00  0.75000000E+00  0.68620000E-01
  0.74999936E+00  0.63687748E+00  0.29816628E+00
  0.75000212E+00  0.49999958E+00  0.12130499E+00
  0.50000080E+00  0.73224412E+00  0.25156400E+00
  0.39214934E+00  0.25000000E+00  0.16123816E-01
  0.10785066E+00  0.25000000E+00  0.16123816E-01
  0.39214934E+00  0.75000000E+00  0.16123816E-01
  0.10785066E+00  0.75000000E+00  0.16123816E-01
  0.89214934E+00  0.25000000E+00  0.16123816E-01
  0.60785066E+00  0.25000000E+00  0.16123816E-01
  0.89214934E+00  0.75000000E+00  0.16123816E-01
  0.60785066E+00  0.75000000E+00  0.16123816E-01
  0.00000000E+00  0.00000000E+00  0.00000000E+00
  0.00000000E+00  0.00000000E+00  0.00000000E+00
  0.00000000E+00  0.00000000E+00  0.00000000E+00
  0.00000000E+00  0.00000000E+00  0.00000000E+00
  0.00000000E+00  0.00000000E+00  0.00000000E+00
  0.00000000E+00  0.00000000E+00  0.00000000E+00
  0.00000000E+00  0.00000000E+00  0.00000000E+00
  0.00000000E+00  0.00000000E+00  0.00000000E+00
  0.00000000E+00  0.00000000E+00  0.00000000E+00
  0.00000000E+00  0.00000000E+00  0.00000000E+00
  0.00000000E+00  0.00000000E+00  0.00000000E+00
  0.00000000E+00  0.00000000E+00  0.00000000E+00
  0.00000000E+00  0.00000000E+00  0.00000000E+00
  0.00000000E+00  0.00000000E+00  0.00000000E+00
  0.00000000E+00  0.00000000E+00  0.00000000E+00
  0.00000000E+00  0.00000000E+00  0.00000000E+00
  0.00000000E+00  0.00000000E+00  0.00000000E+00
  0.00000000E+00  0.00000000E+00  0.00000000E+00
  0.00000000E+00  0.00000000E+00  0.00000000E+00
  0.00000000E+00  0.00000000E+00  0.00000000E+00
  0.00000000E+00  0.00000000E+00  0.00000000E+00
  0.00000000E+00  0.00000000E+00  0.00000000E+00
  0.00000000E+00  0.00000000E+00  0.00000000E+00
  0.00000000E+00  0.00000000E+00  0.00000000E+00
  0.00000000E+00  0.00000000E+00  0.00000000E+00
  0.00000000E+00  0.00000000E+00  0.00000000E+00
  0.00000000E+00  0.00000000E+00  0.00000000E+00
  0.00000000E+00  0.00000000E+00  0.00000000E+00
  0.00000000E+00  0.00000000E+00  0.00000000E+00
  0.00000000E+00  0.00000000E+00  0.00000000E+00
  0.00000000E+00  0.00000000E+00  0.00000000E+00
  0.00000000E+00  0.00000000E+00  0.00000000E+00
  0.00000000E+00  0.00000000E+00  0.00000000E+00
  0.00000000E+00  0.00000000E+00  0.00000000E+00
  0.00000000E+00  0.00000000E+00  0.00000000E+00
  0.00000000E+00  0.00000000E+00  0.00000000E+00
  0.00000000E+00  0.00000000E+00  0.00000000E+00
  0.00000000E+00  0.00000000E+00  0.00000000E+00
  0.00000000E+00  0.00000000E+00  0.00000000E+00
  0.00000000E+00  0.00000000E+00  0.00000000E+00
  0.00000000E+00  0.00000000E+00  0.00000000E+00
  0.00000000E+00  0.00000000E+00  0.00000000E+00
  0.00000000E+00  0.00000000E+00  0.00000000E+00
  0.00000000E+00  0.00000000E+00  0.00000000E+00
  0.00000000E+00  0.00000000E+00  0.00000000E+00
  0.00000000E+00  0.00000000E+00  0.00000000E+00
  0.00000000E+00  0.00000000E+00  0.00000000E+00
  0.00000000E+00  0.00000000E+00  0.00000000E+00
  0.00000000E+00  0.00000000E+00  0.00000000E+00
  0.00000000E+00  0.00000000E+00  0.00000000E+00
  0.00000000E+00  0.00000000E+00  0.00000000E+00
  0.00000000E+00  0.00000000E+00  0.00000000E+00
  0.00000000E+00  0.00000000E+00  0.00000000E+00
  0.00000000E+00  0.00000000E+00  0.00000000E+00
  0.00000000E+00  0.00000000E+00  0.00000000E+00
  0.00000000E+00  0.00000000E+00  0.00000000E+00
