 C                                      
   1.0000000000000000     
     5.0526000000000000    0.0000000000000000    0.0000000000000000
     0.0000000000000000    5.0526000000000000    0.0000000000000000
     0.0000000000000000    0.0000000000000000   14.5726999999999993
  C   H
              20               8
Selective dynamics
Direct
  0.9997357380189394 -0.0027030409565015  0.1970878960005036   T   T   T
  0.2500000000000000  0.2500000000000000  0.0686200000000028   F   F   F
  0.2539635790332552  0.3658435225910788  0.2967484073134664   T   T   T
  0.2524153065084065 -0.0002982624435039  0.1319191152777527   T   T   T
  0.0038872499973314  0.2728592318432649  0.2497470559916988   T   T   T
  0.0015966960845434  0.5021768770320589  0.1796318573356367   T   T   T
  0.2500000000000000  0.7500000000000000  0.0686200000000028   F   F   F
  0.2538285545273909  0.6323267290014145  0.2965921991779422   T   T   T
  0.2507875548740927  0.4995050155045194  0.1223117225709530   T   T   T
  0.0045955427126317  0.7310735645969118  0.2492426856754241   T   T   T
  0.5004148244852261  1.0017011577957151  0.1965803419291356   T   T   T
  0.7500000000000000  0.2500000000000000  0.0686200000000028   F   F   F
  0.7562423312488086  0.3669286428080406  0.2965469793962678   T   T   T
  0.7525899481844150  0.0006179092650677  0.1314993398724502   T   T   T
  0.5032482622550893  0.2707395888115963  0.2500616793946958   T   T   T
  0.5034928276728522  0.4993796459601350  0.1793552035467114   T   T   T
  0.7500000000000000  0.7500000000000000  0.0686200000000028   F   F   F
  0.7548522208684688  0.6350763446507749  0.2970076248960444   T   T   T
  0.7568335243290619  0.5005074877141529  0.1221121700875905   T   T   T
  0.5040344692971938  0.7287196632812257  0.2498762245069273   T   T   T
  0.3921493405254779  0.2500000000000000  0.0161238163050967   F   F   F
  0.1078506594745150  0.2500000000000000  0.0161238163050967   F   F   F
  0.3921493405254779  0.7500000000000000  0.0161238163050967   F   F   F
  0.1078506594745150  0.7500000000000000  0.0161238163050967   F   F   F
  0.8921493405254779  0.2500000000000000  0.0161238163050967   F   F   F
  0.6078506594745150  0.2500000000000000  0.0161238163050967   F   F   F
  0.8921493405254779  0.7500000000000000  0.0161238163050967   F   F   F
  0.6078506594745150  0.7500000000000000  0.0161238163050967   F   F   F

  0.91357685E-03 -0.26001850E-02 -0.64800734E-02
  0.00000000E+00  0.00000000E+00  0.00000000E+00
  0.11277946E-02 -0.31726363E-02 -0.61241732E-03
  0.88098163E-03 -0.18990469E-02 -0.27558755E-02
 -0.39916541E-03 -0.21749744E-02  0.13502259E-02
 -0.62135734E-03  0.53160186E-03 -0.60336104E-02
  0.00000000E+00  0.00000000E+00  0.00000000E+00
  0.18619259E-02  0.37601489E-02 -0.16812499E-02
  0.83967993E-03 -0.50870074E-04 -0.79090214E-02
 -0.26618117E-02  0.39101532E-03 -0.58346387E-03
 -0.53250783E-03 -0.59835457E-03 -0.58756709E-02
  0.00000000E+00  0.00000000E+00  0.00000000E+00
 -0.13521420E-02 -0.52689828E-02 -0.30846925E-02
 -0.11679210E-02  0.79689517E-03 -0.10407842E-02
 -0.63001074E-03 -0.14957340E-02  0.23212201E-02
 -0.11531885E-02  0.50782380E-03 -0.70216051E-02
  0.00000000E+00  0.00000000E+00  0.00000000E+00
 -0.12247004E-02  0.44922367E-02 -0.24176638E-03
  0.12552626E-02  0.12490480E-02 -0.75418108E-02
 -0.67522889E-03  0.64727664E-04  0.22516121E-02
  0.00000000E+00  0.00000000E+00  0.00000000E+00
  0.00000000E+00  0.00000000E+00  0.00000000E+00
  0.00000000E+00  0.00000000E+00  0.00000000E+00
  0.00000000E+00  0.00000000E+00  0.00000000E+00
  0.00000000E+00  0.00000000E+00  0.00000000E+00
  0.00000000E+00  0.00000000E+00  0.00000000E+00
  0.00000000E+00  0.00000000E+00  0.00000000E+00
  0.00000000E+00  0.00000000E+00  0.00000000E+00

           1
   1.5000000000000000     
  0.25310722E+01  0.25967814E-01  0.26917611E-01  0.25046295E+01
  0.69578419E-05  0.99652502E+00  0.19642089E+00
  0.25000000E+00  0.25000000E+00  0.68620000E-01
  0.25429840E+00  0.36490164E+00  0.29668537E+00
  0.25267685E+00  0.99913795E+00  0.13163545E+00
  0.37687470E-02  0.27221353E+00  0.24988604E+00
  0.14122295E-02  0.50233470E+00  0.17901080E+00
  0.25000000E+00  0.75000000E+00  0.68620000E-01
  0.25438132E+00  0.63344303E+00  0.29641914E+00
  0.25103684E+00  0.49948991E+00  0.12149763E+00
  0.38053124E-02  0.73118965E+00  0.24918263E+00
  0.50025674E+00  0.15235202E-02  0.19597555E+00
  0.75000000E+00  0.25000000E+00  0.68620000E-01
  0.75584091E+00  0.36536440E+00  0.29622947E+00
  0.75224322E+00  0.85448900E-03  0.13139221E+00
  0.50306123E+00  0.27029554E+00  0.25030061E+00
  0.50315047E+00  0.49953041E+00  0.17863245E+00
  0.75000000E+00  0.75000000E+00  0.68620000E-01
  0.75448864E+00  0.63640999E+00  0.29698274E+00
  0.75720618E+00  0.50087830E+00  0.12133587E+00
  0.50383401E+00  0.72873888E+00  0.25010799E+00
  0.39214934E+00  0.25000000E+00  0.16123816E-01
  0.10785066E+00  0.25000000E+00  0.16123816E-01
  0.39214934E+00  0.75000000E+00  0.16123816E-01
  0.10785066E+00  0.75000000E+00  0.16123816E-01
  0.89214934E+00  0.25000000E+00  0.16123816E-01
  0.60785066E+00  0.25000000E+00  0.16123816E-01
  0.89214934E+00  0.75000000E+00  0.16123816E-01
  0.60785066E+00  0.75000000E+00  0.16123816E-01
  0.00000000E+00  0.00000000E+00  0.00000000E+00
  0.00000000E+00  0.00000000E+00  0.00000000E+00
  0.00000000E+00  0.00000000E+00  0.00000000E+00
  0.00000000E+00  0.00000000E+00  0.00000000E+00
  0.00000000E+00  0.00000000E+00  0.00000000E+00
  0.00000000E+00  0.00000000E+00  0.00000000E+00
  0.00000000E+00  0.00000000E+00  0.00000000E+00
  0.00000000E+00  0.00000000E+00  0.00000000E+00
  0.00000000E+00  0.00000000E+00  0.00000000E+00
  0.00000000E+00  0.00000000E+00  0.00000000E+00
  0.00000000E+00  0.00000000E+00  0.00000000E+00
  0.00000000E+00  0.00000000E+00  0.00000000E+00
  0.00000000E+00  0.00000000E+00  0.00000000E+00
  0.00000000E+00  0.00000000E+00  0.00000000E+00
  0.00000000E+00  0.00000000E+00  0.00000000E+00
  0.00000000E+00  0.00000000E+00  0.00000000E+00
  0.00000000E+00  0.00000000E+00  0.00000000E+00
  0.00000000E+00  0.00000000E+00  0.00000000E+00
  0.00000000E+00  0.00000000E+00  0.00000000E+00
  0.00000000E+00  0.00000000E+00  0.00000000E+00
  0.00000000E+00  0.00000000E+00  0.00000000E+00
  0.00000000E+00  0.00000000E+00  0.00000000E+00
  0.00000000E+00  0.00000000E+00  0.00000000E+00
  0.00000000E+00  0.00000000E+00  0.00000000E+00
  0.00000000E+00  0.00000000E+00  0.00000000E+00
  0.00000000E+00  0.00000000E+00  0.00000000E+00
  0.00000000E+00  0.00000000E+00  0.00000000E+00
  0.00000000E+00  0.00000000E+00  0.00000000E+00
  0.00000000E+00  0.00000000E+00  0.00000000E+00
  0.00000000E+00  0.00000000E+00  0.00000000E+00
  0.00000000E+00  0.00000000E+00  0.00000000E+00
  0.00000000E+00  0.00000000E+00  0.00000000E+00
  0.00000000E+00  0.00000000E+00  0.00000000E+00
  0.00000000E+00  0.00000000E+00  0.00000000E+00
  0.00000000E+00  0.00000000E+00  0.00000000E+00
  0.00000000E+00  0.00000000E+00  0.00000000E+00
  0.00000000E+00  0.00000000E+00  0.00000000E+00
  0.00000000E+00  0.00000000E+00  0.00000000E+00
  0.00000000E+00  0.00000000E+00  0.00000000E+00
  0.00000000E+00  0.00000000E+00  0.00000000E+00
  0.00000000E+00  0.00000000E+00  0.00000000E+00
  0.00000000E+00  0.00000000E+00  0.00000000E+00
  0.00000000E+00  0.00000000E+00  0.00000000E+00
  0.00000000E+00  0.00000000E+00  0.00000000E+00
  0.00000000E+00  0.00000000E+00  0.00000000E+00
  0.00000000E+00  0.00000000E+00  0.00000000E+00
  0.00000000E+00  0.00000000E+00  0.00000000E+00
  0.00000000E+00  0.00000000E+00  0.00000000E+00
  0.00000000E+00  0.00000000E+00  0.00000000E+00
  0.00000000E+00  0.00000000E+00  0.00000000E+00
  0.00000000E+00  0.00000000E+00  0.00000000E+00
  0.00000000E+00  0.00000000E+00  0.00000000E+00
  0.00000000E+00  0.00000000E+00  0.00000000E+00
  0.00000000E+00  0.00000000E+00  0.00000000E+00
  0.00000000E+00  0.00000000E+00  0.00000000E+00
  0.00000000E+00  0.00000000E+00  0.00000000E+00
