SYSTEM = fcc C 

ISMEAR = -5      # Wavefunction occupancies
ENCUT = 900

#LCHARG = .FALSE. # Do not write charge density to save time
LORBIT=11

