C fcc         # System label
0              # Automatic generation
Gamma          # Generation scheme
8 8 8
0 0 0          # Shift
